\ This file was automatically generated by Zimpl
\ var w1 <= 0;
\ var w2 <= 0;
\ maximize Z :      4*w1 + 5*w2;
\ subto r1:     2*w1 + 1*w2 >= 8;
\ subto r2:     1*w1 + 2*w2 >= 7;
\ subto r3:     0*w1 + 1*w2 >= 3;
\Problem name: pd
Maximize
 Z:  +4 w1 +5 w2
Subject to
 r1_1:
  + w2 +2 w1 >= 8
 r2_1:
  +2 w2 + w1 >= 7
 r3_1:
  + w2 >= 3
Bounds
 w1 = 0
 w2 = 0
End
